Instance Data Loaded. Initializing...


Instance Scale = 1:800

Calculating min-max:

Creating instance min-C...
Instance created.
Translating instance to solver...
GLPSOL: GLPK LP/MIP Solver, v4.65
Parameter(s) specified in the command line:
 --write C:\Users\LUCASP~1\AppData\Local\Temp\tmpujbhcdnt.glpk.raw --wglp
 C:\Users\LUCASP~1\AppData\Local\Temp\tmp2tu0uimy.glpk.glp --cpxlp C:\Users\LUCASP~1\AppData\Local\Temp\tmpe7ypop6i.pyomo.lp
Reading problem data from 'C:\Users\LUCASP~1\AppData\Local\Temp\tmpe7ypop6i.pyomo.lp'...
C:\Users\LUCASP~1\AppData\Local\Temp\tmpe7ypop6i.pyomo.lp:149638: warning: lower bound of variable 'x2' redefined
C:\Users\LUCASP~1\AppData\Local\Temp\tmpe7ypop6i.pyomo.lp:149638: warning: upper bound of variable 'x2' redefined
24984 rows, 13761 columns, 60793 non-zeros
13761 integer variables, 13740 of which are binary
163378 lines were read
Writing problem data to 'C:\Users\LUCASP~1\AppData\Local\Temp\tmp2tu0uimy.glpk.glp'...
116052 lines were written
GLPK Integer Optimizer, v4.65
24984 rows, 13761 columns, 60793 non-zeros
13761 integer variables, 13740 of which are binary
Preprocessing...
156 hidden packing inequaliti(es) were detected
3291 hidden covering inequaliti(es) were detected
99 constraint coefficient(s) were reduced
13899 rows, 6120 columns, 36060 non-zeros
6120 integer variables, 6100 of which are binary
Scaling...
 A: min|aij| =  1.000e+00  max|aij| =  3.200e+01  ratio =  3.200e+01
GM: min|aij| =  4.317e-01  max|aij| =  2.317e+00  ratio =  5.367e+00
EQ: min|aij| =  1.964e-01  max|aij| =  1.000e+00  ratio =  5.091e+00
2N: min|aij| =  1.250e-01  max|aij| =  1.438e+00  ratio =  1.150e+01
Constructing initial basis...
Size of triangular part is 13899
Solving LP relaxation...
GLPK Simplex Optimizer, v4.65
13899 rows, 6120 columns, 36060 non-zeros
      0: obj =   0.000000000e+00 inf =   6.163e+01 (103)
Perturbing LP to avoid stalling [200]...
   1043: obj =   9.700000001e+01 inf =   1.349e-14 (0) 2
Removing LP perturbation [1773]...
*  1773: obj =   3.682097206e-01 inf =   0.000e+00 (0) 4
OPTIMAL LP SOLUTION FOUND
Integer optimization begins...
Long-step dual simplex will be used
+  1773: mip =     not found yet >=              -inf        (1; 0)
+  3849: >>>>>   8.000000000e+00 >=   3.000000000e+00  62.5% (43; 12)
+  7167: >>>>>   7.000000000e+00 >=   4.000000000e+00  42.9% (70; 61)
+ 10936: >>>>>   6.000000000e+00 >=   6.000000000e+00   0.0% (48; 180)
+ 10936: mip =   6.000000000e+00 >=     tree is empty   0.0% (0; 373)
INTEGER OPTIMAL SOLUTION FOUND
Time used:   9.8 secs
Memory used: 28.2 Mb (29519094 bytes)
Writing MIP solution to 'C:\Users\LUCASP~1\AppData\Local\Temp\tmpujbhcdnt.glpk.raw'...
38754 lines were written


----------

Maximums: {'E': 15.2396, 'C': 99}

Minimums: {'E': 0.611782, 'C': 6.0}

----------

Translating instance to solver...

GLPSOL: GLPK LP/MIP Solver, v4.65
Parameter(s) specified in the command line:
 --tmlim 1200 --mipgap 0.0001 --write C:\Users\LUCASP~1\AppData\Local\Temp\tmpo7rams_c.glpk.raw
 --wglp C:\Users\LUCASP~1\AppData\Local\Temp\tmpw5mur99e.glpk.glp --cpxlp
 C:\Users\LUCASP~1\AppData\Local\Temp\tmpdecoyuyb.pyomo.lp
Reading problem data from 'C:\Users\LUCASP~1\AppData\Local\Temp\tmpdecoyuyb.pyomo.lp'...
C:\Users\LUCASP~1\AppData\Local\Temp\tmpdecoyuyb.pyomo.lp:149700: warning: lower bound of variable 'x3' redefined
C:\Users\LUCASP~1\AppData\Local\Temp\tmpdecoyuyb.pyomo.lp:149700: warning: upper bound of variable 'x3' redefined
24984 rows, 13762 columns, 60793 non-zeros
13761 integer variables, 13740 of which are binary
163440 lines were read
Writing problem data to 'C:\Users\LUCASP~1\AppData\Local\Temp\tmpw5mur99e.glpk.glp'...
116115 lines were written
GLPK Integer Optimizer, v4.65
24984 rows, 13762 columns, 60793 non-zeros
13761 integer variables, 13740 of which are binary
Preprocessing...
156 hidden packing inequaliti(es) were detected
3291 hidden covering inequaliti(es) were detected
99 constraint coefficient(s) were reduced
13899 rows, 6120 columns, 36060 non-zeros
6120 integer variables, 6100 of which are binary
Scaling...
 A: min|aij| =  1.000e+00  max|aij| =  3.200e+01  ratio =  3.200e+01
GM: min|aij| =  4.317e-01  max|aij| =  2.317e+00  ratio =  5.367e+00
EQ: min|aij| =  1.964e-01  max|aij| =  1.000e+00  ratio =  5.091e+00
2N: min|aij| =  1.250e-01  max|aij| =  1.438e+00  ratio =  1.150e+01
Constructing initial basis...
Size of triangular part is 13899
Solving LP relaxation...
GLPK Simplex Optimizer, v4.65
13899 rows, 6120 columns, 36060 non-zeros
      0: obj =   1.134646991e-02 inf =   6.163e+01 (103)
Perturbing LP to avoid stalling [200]...
    880: obj =  -3.136342220e-01 inf =   3.914e-15 (0) 2
Removing LP perturbation [1972]...
*  1972: obj =  -3.811052409e-01 inf =   7.022e-14 (0) 5
OPTIMAL LP SOLUTION FOUND
Integer optimization begins...
Long-step dual simplex will be used
+  1972: mip =     not found yet >=              -inf        (1; 0)
+  2085: mip =     not found yet >=  -3.809119766e-01        (36; 0)
+  4736: mip =     not found yet >=  -3.809119766e-01        (101; 1)
+  7856: mip =     not found yet >=  -3.809119766e-01        (151; 3)
+  8102: >>>>>  -2.454764830e-01 >=  -3.809119766e-01  55.2% (171; 3)
+ 10513: mip =  -2.454764830e-01 >=  -3.808380830e-01  55.1% (220; 14)
+ 13107: mip =  -2.454764830e-01 >=  -3.808380830e-01  55.1% (289; 16)
+ 14524: mip =  -2.454764830e-01 >=  -3.808380830e-01  55.1% (325; 16)
+ 16119: mip =  -2.454764830e-01 >=  -3.808380830e-01  55.1% (371; 18)
+ 18091: mip =  -2.454764830e-01 >=  -3.808380830e-01  55.1% (429; 19)
+ 19911: mip =  -2.454764830e-01 >=  -3.807635311e-01  55.1% (475; 20)
+ 21641: mip =  -2.454764830e-01 >=  -3.807094596e-01  55.1% (517; 21)
+ 22931: mip =  -2.454764830e-01 >=  -3.807045041e-01  55.1% (563; 23)
Time used: 60.0 secs.  Memory used: 26.9 Mb.
+ 24808: mip =  -2.454764830e-01 >=  -3.804373462e-01  55.0% (618; 24)
+ 26345: mip =  -2.454764830e-01 >=  -3.804373462e-01  55.0% (698; 26)
+ 28045: mip =  -2.454764830e-01 >=  -3.803281273e-01  54.9% (746; 27)
+ 29325: mip =  -2.454764830e-01 >=  -3.803281273e-01  54.9% (794; 28)
+ 30185: mip =  -2.454764830e-01 >=  -3.803281273e-01  54.9% (821; 28)
+ 31235: mip =  -2.454764830e-01 >=  -3.803281273e-01  54.9% (849; 29)
+ 32228: mip =  -2.454764830e-01 >=  -3.803281273e-01  54.9% (895; 30)
+ 33855: mip =  -2.454764830e-01 >=  -3.803281273e-01  54.9% (942; 31)
+ 34571: mip =  -2.454764830e-01 >=  -3.803281273e-01  54.9% (990; 32)
+ 35859: mip =  -2.454764830e-01 >=  -3.803281273e-01  54.9% (1047; 34)
+ 36662: mip =  -2.454764830e-01 >=  -3.803281273e-01  54.9% (1091; 35)
+ 37782: mip =  -2.454764830e-01 >=  -3.803281273e-01  54.9% (1129; 36)
Time used: 120.1 secs.  Memory used: 32.4 Mb.
+ 38480: mip =  -2.454764830e-01 >=  -3.803281273e-01  54.9% (1163; 36)
+ 39880: mip =  -2.454764830e-01 >=  -3.803206940e-01  54.9% (1206; 37)
+ 42486: mip =  -2.454764830e-01 >=  -3.801021566e-01  54.8% (1271; 39)
+ 43657: mip =  -2.454764830e-01 >=  -3.801021566e-01  54.8% (1306; 39)
+ 45880: mip =  -2.454764830e-01 >=  -3.800760553e-01  54.8% (1361; 40)
+ 46761: mip =  -2.454764830e-01 >=  -3.759093228e-01  53.1% (1389; 41)
+ 47553: mip =  -2.454764830e-01 >=  -3.759093228e-01  53.1% (1417; 41)
+ 48832: >>>>>  -3.268807195e-01 >=  -3.759093228e-01  15.0% (1465; 41)
+ 51259: mip =  -3.268807195e-01 >=  -3.758922087e-01  15.0% (1236; 561)
+ 52851: mip =  -3.268807195e-01 >=  -3.758761987e-01  15.0% (1282; 564)
+ 55362: mip =  -3.268807195e-01 >=  -3.757648012e-01  15.0% (1323; 567)
+ 57409: mip =  -3.268807195e-01 >=  -3.756840779e-01  14.9% (1365; 570)
Time used: 180.3 secs.  Memory used: 36.8 Mb.
+ 59819: mip =  -3.268807195e-01 >=  -3.756840779e-01  14.9% (1426; 571)
+ 62428: mip =  -3.268807195e-01 >=  -3.756840779e-01  14.9% (1477; 574)
+ 64840: mip =  -3.268807195e-01 >=  -3.756840779e-01  14.9% (1522; 577)
+ 66608: mip =  -3.268807195e-01 >=  -3.756840779e-01  14.9% (1584; 579)
+ 69997: mip =  -3.268807195e-01 >=  -3.756840779e-01  14.9% (1628; 581)
+ 70154: >>>>>  -3.287269036e-01 >=  -3.756840779e-01  14.3% (1638; 581)
+ 73250: mip =  -3.287269036e-01 >=  -3.756840779e-01  14.3% (1630; 711)
+ 76359: mip =  -3.287269036e-01 >=  -3.756840779e-01  14.3% (1677; 713)
+ 80770: mip =  -3.287269036e-01 >=  -3.756833155e-01  14.3% (1752; 717)
+ 84497: mip =  -3.287269036e-01 >=  -3.756760729e-01  14.3% (1834; 720)
+ 87693: mip =  -3.287269036e-01 >=  -3.756680678e-01  14.3% (1901; 724)
+ 91184: mip =  -3.287269036e-01 >=  -3.756363214e-01  14.3% (1963; 727)
+ 93509: mip =  -3.287269036e-01 >=  -3.756320452e-01  14.3% (2003; 731)
Time used: 240.4 secs.  Memory used: 48.2 Mb.
+ 94659: mip =  -3.287269036e-01 >=  -3.756286391e-01  14.3% (2057; 732)
+ 96834: mip =  -3.287269036e-01 >=  -3.756219072e-01  14.3% (2099; 733)
+ 99191: mip =  -3.287269036e-01 >=  -3.755800125e-01  14.3% (2137; 736)
+102053: mip =  -3.287269036e-01 >=  -3.755785633e-01  14.3% (2184; 739)
+103873: mip =  -3.287269036e-01 >=  -3.755696393e-01  14.2% (2206; 741)
+105976: mip =  -3.287269036e-01 >=  -3.755696393e-01  14.2% (2237; 742)
+109045: >>>>>  -3.289350344e-01 >=  -3.755605002e-01  14.2% (2287; 745)
+110294: mip =  -3.289350344e-01 >=  -3.755198828e-01  14.2% (2283; 795)
+112830: mip =  -3.289350344e-01 >=  -3.755149716e-01  14.2% (2324; 797)
+115272: mip =  -3.289350344e-01 >=  -3.754818995e-01  14.2% (2380; 799)
+117159: mip =  -3.289350344e-01 >=  -3.754759471e-01  14.1% (2434; 801)
+121575: mip =  -3.289350344e-01 >=  -3.754759471e-01  14.1% (2485; 805)
Time used: 300.5 secs.  Memory used: 55.4 Mb.
+125024: mip =  -3.289350344e-01 >=  -3.754759471e-01  14.1% (2544; 808)
+128208: mip =  -3.289350344e-01 >=  -3.754759471e-01  14.1% (2588; 813)
+130664: mip =  -3.289350344e-01 >=  -3.754759471e-01  14.1% (2633; 816)
+133465: mip =  -3.289350344e-01 >=  -3.754759471e-01  14.1% (2705; 819)
+136605: mip =  -3.289350344e-01 >=  -3.754759471e-01  14.1% (2749; 822)
+140077: >>>>>  -3.436035335e-01 >=  -3.754759471e-01   9.3% (2800; 825)
+140931: mip =  -3.436035335e-01 >=  -3.754759471e-01   9.3% (2257; 1873)
+143079: mip =  -3.436035335e-01 >=  -3.754709916e-01   9.3% (2303; 1875)
+146986: mip =  -3.436035335e-01 >=  -3.754606417e-01   9.3% (2362; 1880)
+149957: mip =  -3.436035335e-01 >=  -3.754519320e-01   9.3% (2404; 1887)
+153218: mip =  -3.436035335e-01 >=  -3.754191841e-01   9.3% (2447; 1895)
+156042: mip =  -3.436035335e-01 >=  -3.753871870e-01   9.3% (2489; 1899)
Time used: 360.5 secs.  Memory used: 61.0 Mb.
+157272: mip =  -3.436035335e-01 >=  -3.753871870e-01   9.3% (2534; 1901)
+159539: mip =  -3.436035335e-01 >=  -3.753871870e-01   9.3% (2570; 1902)
+160782: mip =  -3.436035335e-01 >=  -3.753871870e-01   9.3% (2597; 1903)
+162606: mip =  -3.436035335e-01 >=  -3.753871870e-01   9.3% (2652; 1905)
+166747: mip =  -3.436035335e-01 >=  -3.753871870e-01   9.3% (2694; 1907)
+168959: mip =  -3.436035335e-01 >=  -3.753871870e-01   9.3% (2726; 1908)
+170356: mip =  -3.436035335e-01 >=  -3.753871870e-01   9.3% (2765; 1909)
+173134: mip =  -3.436035335e-01 >=  -3.753787663e-01   9.2% (2798; 1911)
+174927: mip =  -3.436035335e-01 >=  -3.753718817e-01   9.2% (2846; 1913)
+178646: mip =  -3.436035335e-01 >=  -3.753572818e-01   9.2% (2908; 1917)
+180475: mip =  -3.436035335e-01 >=  -3.753572818e-01   9.2% (2949; 1918)
+183055: mip =  -3.436035335e-01 >=  -3.753173538e-01   9.2% (2981; 1922)
Time used: 420.6 secs.  Memory used: 66.9 Mb.
+185409: mip =  -3.436035335e-01 >=  -3.753091507e-01   9.2% (3011; 1924)
+188222: mip =  -3.436035335e-01 >=  -3.752776476e-01   9.2% (3061; 1927)
+190270: mip =  -3.436035335e-01 >=  -3.752678162e-01   9.2% (3100; 1929)
+192664: mip =  -3.436035335e-01 >=  -3.752678162e-01   9.2% (3150; 1934)
+194239: mip =  -3.436035335e-01 >=  -3.752678162e-01   9.2% (3198; 1938)
+197544: mip =  -3.436035335e-01 >=  -3.752678162e-01   9.2% (3223; 1945)
+199880: mip =  -3.436035335e-01 >=  -3.752678162e-01   9.2% (3257; 1949)
+202000: mip =  -3.436035335e-01 >=  -3.752678162e-01   9.2% (3306; 1951)
+204959: mip =  -3.436035335e-01 >=  -3.752456262e-01   9.2% (3355; 1954)
+207810: mip =  -3.436035335e-01 >=  -3.752234362e-01   9.2% (3394; 1957)
+209797: mip =  -3.436035335e-01 >=  -3.752231051e-01   9.2% (3428; 1960)
+212005: mip =  -3.436035335e-01 >=  -3.752168560e-01   9.2% (3468; 1963)
Time used: 480.7 secs.  Memory used: 75.6 Mb.
+215555: mip =  -3.436035335e-01 >=  -3.751861828e-01   9.2% (3512; 1968)
+219300: mip =  -3.436035335e-01 >=  -3.751861828e-01   9.2% (3574; 1975)
+222955: mip =  -3.436035335e-01 >=  -3.751861828e-01   9.2% (3621; 1977)
+226371: mip =  -3.436035335e-01 >=  -3.751861828e-01   9.2% (3670; 1980)
+229201: mip =  -3.436035335e-01 >=  -3.751861828e-01   9.2% (3723; 1984)
+231899: mip =  -3.436035335e-01 >=  -3.751861828e-01   9.2% (3770; 1986)
+234503: mip =  -3.436035335e-01 >=  -3.751861828e-01   9.2% (3819; 1989)
+236902: mip =  -3.436035335e-01 >=  -3.751861828e-01   9.2% (3867; 1992)
+239623: mip =  -3.436035335e-01 >=  -3.751861828e-01   9.2% (3920; 1995)
+242333: mip =  -3.436035335e-01 >=  -3.751861828e-01   9.2% (3968; 1997)
+244048: mip =  -3.436035335e-01 >=  -3.751861828e-01   9.2% (4001; 1999)
Time used: 540.8 secs.  Memory used: 85.1 Mb.
+246359: mip =  -3.436035335e-01 >=  -3.751861828e-01   9.2% (4039; 2001)
+248838: mip =  -3.436035335e-01 >=  -3.751861828e-01   9.2% (4078; 2003)
+251929: mip =  -3.436035335e-01 >=  -3.751861828e-01   9.2% (4124; 2005)
+255753: mip =  -3.436035335e-01 >=  -3.751861828e-01   9.2% (4176; 2009)
+259110: mip =  -3.436035335e-01 >=  -3.751861828e-01   9.2% (4211; 2012)
+262241: mip =  -3.436035335e-01 >=  -3.751861828e-01   9.2% (4250; 2018)
+265766: mip =  -3.436035335e-01 >=  -3.751861828e-01   9.2% (4292; 2024)
+270365: mip =  -3.436035335e-01 >=  -3.751861828e-01   9.2% (4325; 2032)
+274713: mip =  -3.436035335e-01 >=  -3.751861828e-01   9.2% (4370; 2039)
+278181: mip =  -3.436035335e-01 >=  -3.751861828e-01   9.2% (4424; 2042)
+281892: mip =  -3.436035335e-01 >=  -3.751861828e-01   9.2% (4484; 2045)
+286808: mip =  -3.436035335e-01 >=  -3.751861828e-01   9.2% (4522; 2053)
Time used: 600.9 secs.  Memory used: 95.1 Mb.
+290769: mip =  -3.436035335e-01 >=  -3.751812273e-01   9.2% (4552; 2056)
+292944: mip =  -3.436035335e-01 >=  -3.751812273e-01   9.2% (4586; 2060)
+296289: mip =  -3.436035335e-01 >=  -3.751790562e-01   9.2% (4638; 2063)
+298587: mip =  -3.436035335e-01 >=  -3.751790562e-01   9.2% (4706; 2066)
+300596: mip =  -3.436035335e-01 >=  -3.751790562e-01   9.2% (4737; 2068)
+303524: mip =  -3.436035335e-01 >=  -3.751790562e-01   9.2% (4789; 2075)
+304719: mip =  -3.436035335e-01 >=  -3.751790562e-01   9.2% (4809; 2075)
+306634: mip =  -3.436035335e-01 >=  -3.751790562e-01   9.2% (4844; 2076)
+307897: mip =  -3.436035335e-01 >=  -3.751790562e-01   9.2% (4872; 2077)
+311047: mip =  -3.436035335e-01 >=  -3.751790562e-01   9.2% (4922; 2082)
+313508: mip =  -3.436035335e-01 >=  -3.751790562e-01   9.2% (4963; 2084)
+317131: mip =  -3.436035335e-01 >=  -3.751768002e-01   9.2% (5012; 2089)
Time used: 660.9 secs.  Memory used: 103.7 Mb.
+319805: mip =  -3.436035335e-01 >=  -3.751637508e-01   9.2% (5063; 2094)
+321744: mip =  -3.436035335e-01 >=  -3.751637508e-01   9.2% (5111; 2098)
+323667: mip =  -3.436035335e-01 >=  -3.751637508e-01   9.2% (5151; 2099)
+324946: mip =  -3.436035335e-01 >=  -3.751633114e-01   9.2% (5180; 2100)
+327834: mip =  -3.436035335e-01 >=  -3.751624805e-01   9.2% (5228; 2102)
+329192: mip =  -3.436035335e-01 >=  -3.751579583e-01   9.2% (5258; 2104)
+332012: mip =  -3.436035335e-01 >=  -3.751579583e-01   9.2% (5300; 2107)
+334704: mip =  -3.436035335e-01 >=  -3.751579583e-01   9.2% (5337; 2108)
+336669: mip =  -3.436035335e-01 >=  -3.751499816e-01   9.2% (5378; 2111)
+339325: mip =  -3.436035335e-01 >=  -3.751448281e-01   9.2% (5414; 2116)
+341771: mip =  -3.436035335e-01 >=  -3.751448281e-01   9.2% (5457; 2119)
+344352: mip =  -3.436035335e-01 >=  -3.751444501e-01   9.2% (5484; 2124)
Time used: 721.0 secs.  Memory used: 111.4 Mb.
+345825: mip =  -3.436035335e-01 >=  -3.751424905e-01   9.2% (5517; 2125)
+347416: mip =  -3.436035335e-01 >=  -3.751349171e-01   9.2% (5555; 2127)
+350093: mip =  -3.436035335e-01 >=  -3.751320110e-01   9.2% (5609; 2129)
+352566: mip =  -3.436035335e-01 >=  -3.751302531e-01   9.2% (5651; 2134)
+353846: mip =  -3.436035335e-01 >=  -3.751302531e-01   9.2% (5683; 2135)
+355723: mip =  -3.436035335e-01 >=  -3.751302531e-01   9.2% (5717; 2137)
+357130: mip =  -3.436035335e-01 >=  -3.751302531e-01   9.2% (5752; 2139)
+358570: mip =  -3.436035335e-01 >=  -3.751302531e-01   9.2% (5776; 2140)
+360641: mip =  -3.436035335e-01 >=  -3.751302531e-01   9.2% (5812; 2142)
+362738: mip =  -3.436035335e-01 >=  -3.751278973e-01   9.2% (5839; 2144)
+365409: mip =  -3.436035335e-01 >=  -3.751256600e-01   9.2% (5886; 2148)
+367925: mip =  -3.436035335e-01 >=  -3.751256600e-01   9.2% (5934; 2151)
Time used: 781.1 secs.  Memory used: 121.3 Mb.
+370351: mip =  -3.436035335e-01 >=  -3.751256600e-01   9.2% (5976; 2154)
+371895: mip =  -3.436035335e-01 >=  -3.751256600e-01   9.2% (6012; 2155)
+373691: mip =  -3.436035335e-01 >=  -3.751256600e-01   9.2% (6040; 2156)
+375499: mip =  -3.436035335e-01 >=  -3.751256600e-01   9.2% (6069; 2157)
+377457: mip =  -3.436035335e-01 >=  -3.751256600e-01   9.2% (6107; 2159)
+379541: mip =  -3.436035335e-01 >=  -3.751256600e-01   9.2% (6137; 2160)
+381577: mip =  -3.436035335e-01 >=  -3.751248824e-01   9.2% (6181; 2162)
+383880: mip =  -3.436035335e-01 >=  -3.751248824e-01   9.2% (6214; 2163)
+386255: mip =  -3.436035335e-01 >=  -3.751248824e-01   9.2% (6261; 2166)
+387557: mip =  -3.436035335e-01 >=  -3.751248824e-01   9.2% (6288; 2166)
+389037: mip =  -3.436035335e-01 >=  -3.751248824e-01   9.2% (6315; 2167)
Time used: 841.2 secs.  Memory used: 126.2 Mb.
+390621: mip =  -3.436035335e-01 >=  -3.751248824e-01   9.2% (6342; 2168)
+392303: mip =  -3.436035335e-01 >=  -3.751248824e-01   9.2% (6371; 2169)
+394005: mip =  -3.436035335e-01 >=  -3.751248824e-01   9.2% (6401; 2170)
+395729: mip =  -3.436035335e-01 >=  -3.751248824e-01   9.2% (6432; 2171)
+397456: mip =  -3.436035335e-01 >=  -3.751248824e-01   9.2% (6464; 2172)
+399185: mip =  -3.436035335e-01 >=  -3.751248824e-01   9.2% (6496; 2173)
+401020: mip =  -3.436035335e-01 >=  -3.751248824e-01   9.2% (6529; 2174)
+402835: mip =  -3.436035335e-01 >=  -3.751248824e-01   9.2% (6574; 2176)
+406404: mip =  -3.436035335e-01 >=  -3.751228571e-01   9.2% (6647; 2180)
+410162: >>>>>  -3.650201498e-01 >=  -3.751135022e-01   2.8% (6704; 2184)
+415485: mip =  -3.650201498e-01 >=  -3.751022154e-01   2.8% (2759; 9989)
+419205: mip =  -3.650201498e-01 >=  -3.751017425e-01   2.8% (2844; 10000)
+421425: mip =  -3.650201498e-01 >=  -3.751015995e-01   2.8% (2879; 10006)
Time used: 901.3 secs.  Memory used: 130.4 Mb.
+421856: mip =  -3.650201498e-01 >=  -3.751015995e-01   2.8% (2904; 10007)
+424574: mip =  -3.650201498e-01 >=  -3.750652859e-01   2.8% (2909; 10040)
+427142: mip =  -3.650201498e-01 >=  -3.750454230e-01   2.7% (2923; 10051)
+429218: mip =  -3.650201498e-01 >=  -3.750454230e-01   2.7% (2946; 10054)
+431184: mip =  -3.650201498e-01 >=  -3.750454230e-01   2.7% (2974; 10056)
+432998: mip =  -3.650201498e-01 >=  -3.750454230e-01   2.7% (3000; 10058)
+434812: mip =  -3.650201498e-01 >=  -3.750390643e-01   2.7% (3026; 10060)
+438053: mip =  -3.650201498e-01 >=  -3.749887887e-01   2.7% (3056; 10070)
+441062: mip =  -3.650201498e-01 >=  -3.749887887e-01   2.7% (3096; 10075)
+443295: mip =  -3.650201498e-01 >=  -3.749846593e-01   2.7% (3132; 10079)
+446057: mip =  -3.650201498e-01 >=  -3.749780520e-01   2.7% (3156; 10088)
Time used: 961.3 secs.  Memory used: 130.4 Mb.
+452491: mip =  -3.650201498e-01 >=  -3.749780520e-01   2.7% (3161; 10118)
+458188: mip =  -3.650201498e-01 >=  -3.749780520e-01   2.7% (3174; 10144)
+464716: mip =  -3.650201498e-01 >=  -3.749780520e-01   2.7% (3173; 10169)
+470565: mip =  -3.650201498e-01 >=  -3.749780520e-01   2.7% (3184; 10197)
+475752: mip =  -3.650201498e-01 >=  -3.749780520e-01   2.7% (3192; 10214)
+479484: mip =  -3.650201498e-01 >=  -3.749641725e-01   2.7% (3221; 10232)
+483521: mip =  -3.650201498e-01 >=  -3.749287296e-01   2.7% (3234; 10248)
+485419: mip =  -3.650201498e-01 >=  -3.749287296e-01   2.7% (3259; 10251)
+488398: mip =  -3.650201498e-01 >=  -3.749287296e-01   2.7% (3277; 10256)
+492491: mip =  -3.650201498e-01 >=  -3.749152823e-01   2.7% (3290; 10267)
+496065: mip =  -3.650201498e-01 >=  -3.749086750e-01   2.7% (3261; 10304)
+498436: mip =  -3.650201498e-01 >=  -3.748892919e-01   2.7% (3281; 10323)
Time used: 1021.4 secs.  Memory used: 130.4 Mb.
+501554: mip =  -3.650201498e-01 >=  -3.748892919e-01   2.7% (3301; 10334)
+504782: mip =  -3.650201498e-01 >=  -3.748426342e-01   2.7% (3327; 10353)
+508620: mip =  -3.650201498e-01 >=  -3.748318648e-01   2.7% (3322; 10373)
+511592: >>>>>  -3.652282806e-01 >=  -3.748198952e-01   2.6% (3278; 10419)
+513801: mip =  -3.652282806e-01 >=  -3.747721510e-01   2.6% (3146; 10883)
+517337: mip =  -3.652282806e-01 >=  -3.747699211e-01   2.6% (3161; 10905)
+520030: mip =  -3.652282806e-01 >=  -3.747291044e-01   2.6% (3180; 10924)
+526417: mip =  -3.652282806e-01 >=  -3.746882877e-01   2.6% (3133; 11002)
+528348: mip =  -3.652282806e-01 >=  -3.746882877e-01   2.6% (3145; 11020)
+530230: mip =  -3.652282806e-01 >=  -3.746811611e-01   2.6% (3168; 11032)
+533311: mip =  -3.652282806e-01 >=  -3.746811611e-01   2.6% (3184; 11046)
+537245: mip =  -3.652282806e-01 >=  -3.746811611e-01   2.6% (3216; 11060)
Time used: 1081.4 secs.  Memory used: 130.4 Mb.
+540078: mip =  -3.652282806e-01 >=  -3.746811611e-01   2.6% (3240; 11071)
+541812: mip =  -3.652282806e-01 >=  -3.746811611e-01   2.6% (3249; 11074)
+543803: mip =  -3.652282806e-01 >=  -3.746811611e-01   2.6% (3260; 11076)
+545821: mip =  -3.652282806e-01 >=  -3.746811611e-01   2.6% (3270; 11079)
+548959: mip =  -3.652282806e-01 >=  -3.746811611e-01   2.6% (3291; 11084)
+552313: mip =  -3.652282806e-01 >=  -3.746811611e-01   2.6% (3310; 11091)
+554989: mip =  -3.652282806e-01 >=  -3.746811611e-01   2.6% (3332; 11102)
+558499: mip =  -3.652282806e-01 >=  -3.746811611e-01   2.6% (3353; 11118)
+561165: mip =  -3.652282806e-01 >=  -3.746811611e-01   2.6% (3378; 11124)
+563317: mip =  -3.652282806e-01 >=  -3.746811611e-01   2.6% (3399; 11131)
+566174: mip =  -3.652282806e-01 >=  -3.746811611e-01   2.6% (3430; 11138)
+569259: mip =  -3.652282806e-01 >=  -3.746811611e-01   2.6% (3450; 11144)
Time used: 1141.4 secs.  Memory used: 130.4 Mb.
+572398: mip =  -3.652282806e-01 >=  -3.746811611e-01   2.6% (3471; 11152)
+574546: mip =  -3.652282806e-01 >=  -3.746811611e-01   2.6% (3494; 11156)
+576564: mip =  -3.652282806e-01 >=  -3.746811611e-01   2.6% (3532; 11160)
+578485: mip =  -3.652282806e-01 >=  -3.746811611e-01   2.6% (3572; 11164)
+580291: mip =  -3.652282806e-01 >=  -3.746811611e-01   2.6% (3613; 11168)
+581837: mip =  -3.652282806e-01 >=  -3.746811611e-01   2.6% (3656; 11171)
+585214: mip =  -3.652282806e-01 >=  -3.746795093e-01   2.6% (3695; 11180)
+588912: mip =  -3.652282806e-01 >=  -3.746795093e-01   2.6% (3697; 11192)
+591677: mip =  -3.652282806e-01 >=  -3.746795093e-01   2.6% (3712; 11201)
+594813: mip =  -3.652282806e-01 >=  -3.746795093e-01   2.6% (3725; 11212)
+598085: mip =  -3.652282806e-01 >=  -3.746795093e-01   2.6% (3736; 11222)
+601182: mip =  -3.652282806e-01 >=  -3.746795093e-01   2.6% (3751; 11232)
+602437: mip =  -3.652282806e-01 >=  -3.746795093e-01   2.6% (3757; 11236)
TIME LIMIT EXCEEDED; SEARCH TERMINATED
Time used:   1200.9 secs
Memory used: 134.1 Mb (140631144 bytes)
Writing MIP solution to 'C:\Users\LUCASP~1\AppData\Local\Temp\tmpo7rams_c.glpk.raw'...
38755 lines were written

Results:

E: 0.25879075060955775 -- 4.397326 mA
C: 0.989247311827957 -- 98.0 points
WEIGHTED: -0.36522828060919965
Total Solving time: 1201.1963319778442 s
Total elapsed time since execution: 1218.0559673309326
